NAME: CMT2_4
TYPE: CVRP
COMMENT: 835.26 - Cluster Nr.4
DIMENSION: 8
CAPACITY: 140
EDGE_WEIGHT_TYPE: EUC_2D
NODE_COORD_TYPE: TWOD_COORDS
NODE_COORD_SECTION: 
1 33 44
3 30 50
2 41 46
6 40 40
5 45 42
4 35 60
7 29 39
8 35 51
DEPOT_SECTION: 
6
-1
DEMAND_SECTION: 
5 30
7 12
2 18
4 1
1 20
6 0
8 16
3 33
EOF
